% File represents an instance of a Composite Structure problem to be solved by a CP framework
% Created on 2025-03-26 10:41:17.441
T = 50;
n = 9;
m = 12;
edges = [(1, 2),
(4, 5),
(8, 7),
(2, 3),
(6, 5),
(9, 8),
(1, 4),
(4, 7),
(2, 5),
(8, 5),
(6, 3),
(9, 6)];
counts = [|16, 2, 16, 16,
|14, 2, 14, 14,
|12, 2, 12, 14,
|14, 2, 14, 16,
|14, 2, 14, 10,
|14, 2, 14, 16,
|14, 2, 14, 12,
|14, 2, 14, 16,
|14, 2, 14, 18|];
